W = 9;
H = 5;

cost =   [| 4,3,2,1,0,1,2,3,4
          | 4,3,2,1,0,1,2,3,4
          | 4,3,2,1,0,1,2,3,4
          | 4,3,2,1,0,1,2,3,4
          | 4,3,2,1,0,1,2,3,4
          |];
reward = [| 3,2,1,0,0,0,1,3,5
          | 0,0,4,0,0,0,5,0,0
          | 2,0,0,-1,0,-1,0,0,2
          | 0,0,3,0,0,0,2,0,0
          | 2,4,4,0,0,0,1,1,4
          |];

length = 16; 
budget = 16;                  
          